29 29
24
3 3   22 26
3 4   3 0 
3 5   26 21
3 6   0 8 
3 7   3 4 
3 8   0 0 
3 9   15 0 
3 10  26 0 
3 11  26 10
3 15  0 14
3 18  3 11
3 20  15 9 
4 3   25 26
4 4   6 25
4 5   18 15
4 6   22 0 
4 7   6 0 
4 9   18 20
4 15  18 0 
4 18  6 7 
4 20  22 6 
5 4   10 25
5 8   10 0 
5 17  10 8 
